0
Node Left Objective IInf Best_Integer Best_Bound ItCnt Gap
0+ 0 nan nan 136.4723 0.0000 nan 100.00%
0+ 0 nan nan 99.1655 0.0000 nan 100.00%
0 0 0.0000 27 99.1655 0.0000 129 100.00%
0 0 0.0000 25 99.1655 Cuts:7 136 100.00%
0 0 0.0000 26 99.1655 Cuts:19 173 100.00%
0 0 0.0000 26 99.1655 Cuts:6 184 100.00%
0+ 0 nan nan 94.9150 0.0000 nan 100.00%
0 2 0.0000 25 94.9150 0.0000 184 100.00%
CPXPARAM_MIP_Cuts_Gomory-Disjunctive-LiftProj:Gomory 0
CPXPARAM_MIP_Cuts_Gomory-Disjunctive-LiftProj:Disjunctive 1
CPXPARAM_MIP_Cuts_Gomory-Disjunctive-LiftProj:LiftProj 0
1
Node Left Objective IInf Best_Integer Best_Bound ItCnt Gap
0+ 0 nan nan 136.4723 0.0000 nan 100.00%
0+ 0 nan nan 99.1655 0.0000 nan 100.00%
0 0 0.0000 27 99.1655 0.0000 128 100.00%
0+ 0 nan nan 81.0831 0.0000 nan 100.00%
0 0 0.0000 18 81.0831 Cuts:4 132 100.00%
0 0 0.0000 20 81.0831 Cuts:15 190 100.00%
0+ 0 nan nan 74.9961 0.0000 nan 100.00%
0 0 0.0000 21 74.9961 LiftProj:4 200 100.00%
0+ 0 nan nan 68.7594 0.0000 nan 100.00%
0 2 0.0000 19 68.7594 0.0000 200 100.00%
CPXPARAM_MIP_Cuts_Gomory-Disjunctive-LiftProj:Gomory 0
CPXPARAM_MIP_Cuts_Gomory-Disjunctive-LiftProj:Disjunctive 0
CPXPARAM_MIP_Cuts_Gomory-Disjunctive-LiftProj:LiftProj 0
2
Node Left Objective IInf Best_Integer Best_Bound ItCnt Gap
0+ 0 nan nan 136.4723 0.0000 nan 100.00%
0+ 0 nan nan 69.8576 0.0000 nan 100.00%
0 0 0.0000 23 69.8576 0.0000 121 100.00%
0 0 0.0000 21 69.8576 Cuts:14 142 100.00%
0 0 0.0000 21 69.8576 Cuts:20 188 100.00%
0 0 0.0000 22 69.8576 Cuts:24 233 100.00%
0+ 0 nan nan 65.6450 0.0000 nan 100.00%
0+ 0 nan nan 64.1773 0.0000 nan 100.00%
0 2 0.0000 20 64.1773 0.0000 233 100.00%
CPXPARAM_MIP_Cuts_Gomory-Disjunctive-LiftProj:Gomory 0
CPXPARAM_MIP_Cuts_Gomory-Disjunctive-LiftProj:Disjunctive 1
CPXPARAM_MIP_Cuts_Gomory-Disjunctive-LiftProj:LiftProj 1
3
Node Left Objective IInf Best_Integer Best_Bound ItCnt Gap
0+ 0 nan nan 136.4723 0.0000 nan 100.00%
0+ 0 nan nan 69.8576 0.0000 nan 100.00%
0 0 0.0000 24 69.8576 0.0000 115 100.00%
0+ 0 nan nan 58.0305 0.0000 nan 100.00%
0 0 0.0000 15 58.0305 Cuts:4 127 100.00%
0 0 0.0000 16 58.0305 Cuts:14 183 100.00%
0+ 0 nan nan 57.2420 0.0000 nan 100.00%
0 0 0.0000 15 57.2420 LiftProj:4 192 100.00%
0+ 0 nan nan 40.2114 0.0000 nan 100.00%
0+ 0 nan nan 30.0559 0.0000 nan 100.00%
0+ 0 nan nan 28.7103 0.0000 nan 100.00%
0 2 0.0000 13 28.7103 0.0000 192 100.00%
CPXPARAM_MIP_Cuts_Gomory-Disjunctive-LiftProj:Gomory 2
CPXPARAM_MIP_Cuts_Gomory-Disjunctive-LiftProj:Disjunctive 0
CPXPARAM_MIP_Cuts_Gomory-Disjunctive-LiftProj:LiftProj 0
4
Node Left Objective IInf Best_Integer Best_Bound ItCnt Gap
0+ 0 nan nan 115.1924 0.0000 nan 100.00%
0+ 0 nan nan 108.1598 0.0000 nan 100.00%
0+ 0 nan nan 98.2525 0.0000 nan 100.00%
0 0 0.0000 27 98.2525 0.0000 135 100.00%
0 0 0.0000 26 98.2525 Cuts:9 151 100.00%
0+ 0 nan nan 92.7013 0.0000 nan 100.00%
0 0 0.0000 27 92.7013 Cuts:24 189 100.00%
0 0 0.0000 25 92.7013 Cuts:8 195 100.00%
0+ 0 nan nan 86.7368 0.0000 nan 100.00%
0+ 0 nan nan 74.9735 0.0000 nan 100.00%
0+ 0 nan nan 64.9170 0.0000 nan 100.00%
0 2 0.0000 25 64.9170 0.0000 195 100.00%
CPXPARAM_MIP_Cuts_Gomory-Disjunctive-LiftProj:Gomory 1
CPXPARAM_MIP_Cuts_Gomory-Disjunctive-LiftProj:Disjunctive 0
CPXPARAM_MIP_Cuts_Gomory-Disjunctive-LiftProj:LiftProj 4
5
Node Left Objective IInf Best_Integer Best_Bound ItCnt Gap
0+ 0 nan nan 115.1924 0.0000 nan 100.00%
0+ 0 nan nan 108.1598 0.0000 nan 100.00%
0+ 0 nan nan 79.8300 0.0000 nan 100.00%
0 0 0.0000 27 79.8300 0.0000 133 100.00%
0+ 0 nan nan 76.7844 0.0000 nan 100.00%
0+ 0 nan nan 65.0419 0.0000 nan 100.00%
0+ 0 nan nan 51.7641 0.0000 nan 100.00%
0 2 0.0000 18 51.7641 0.0000 133 100.00%
CPXPARAM_MIP_Cuts_Gomory-Disjunctive-LiftProj:Gomory 0
CPXPARAM_MIP_Cuts_Gomory-Disjunctive-LiftProj:Disjunctive 0
CPXPARAM_MIP_Cuts_Gomory-Disjunctive-LiftProj:LiftProj 0
6
Node Left Objective IInf Best_Integer Best_Bound ItCnt Gap
0+ 0 nan nan 115.1924 0.0000 nan 100.00%
0+ 0 nan nan 81.9438 0.0000 nan 100.00%
0 0 0.0000 23 81.9438 0.0000 129 100.00%
0+ 0 nan nan 80.6567 0.0000 nan 100.00%
0 0 0.0000 21 80.6567 Disjcuts:3 140 100.00%
0+ 0 nan nan 68.5278 0.0000 nan 100.00%
0 0 0.0000 21 68.5278 Cuts:36 176 100.00%
0 0 0.0000 22 68.5278 Cuts:23 209 100.00%
0+ 0 nan nan 67.3728 0.0000 nan 100.00%
0+ 0 nan nan 57.2825 0.0000 nan 100.00%
0 2 0.0000 21 57.2825 0.0000 209 100.00%
CPXPARAM_MIP_Cuts_Gomory-Disjunctive-LiftProj:Gomory 0
CPXPARAM_MIP_Cuts_Gomory-Disjunctive-LiftProj:Disjunctive 1
CPXPARAM_MIP_Cuts_Gomory-Disjunctive-LiftProj:LiftProj 1
7
Node Left Objective IInf Best_Integer Best_Bound ItCnt Gap
0+ 0 nan nan 115.1924 0.0000 nan 100.00%
0+ 0 nan nan 81.9438 0.0000 nan 100.00%
0 0 0.0000 23 81.9438 0.0000 122 100.00%
0+ 0 nan nan 68.4953 0.0000 nan 100.00%
0 0 0.0000 15 68.4953 Cuts:3 142 100.00%
0 0 0.0000 16 68.4953 Cuts:21 165 100.00%
0+ 0 nan nan 66.8755 0.0000 nan 100.00%
0 0 0.0000 17 66.8755 Cuts:13 175 100.00%
0+ 0 nan nan 54.7617 0.0000 nan 100.00%
0+ 0 nan nan 41.5943 0.0000 nan 100.00%
0+ 0 nan nan 41.3621 0.0000 nan 100.00%
0 2 0.0000 13 41.3621 0.0000 175 100.00%
CPXPARAM_MIP_Cuts_Gomory-Disjunctive-LiftProj:Gomory 1
CPXPARAM_MIP_Cuts_Gomory-Disjunctive-LiftProj:Disjunctive 0
CPXPARAM_MIP_Cuts_Gomory-Disjunctive-LiftProj:LiftProj 1
8
Node Left Objective IInf Best_Integer Best_Bound ItCnt Gap
0+ 0 nan nan 131.6037 0.0000 nan 100.00%
0+ 0 nan nan 111.2422 0.0000 nan 100.00%
0+ 0 nan nan 109.8445 0.0000 nan 100.00%
0 0 0.0000 27 109.8445 0.0000 114 100.00%
0 0 0.0000 28 109.8445 Cuts:16 142 100.00%
0 0 0.0000 27 109.8445 Disjcuts:1 146 100.00%
0+ 0 nan nan 101.1409 0.0000 nan 100.00%
0+ 0 nan nan 93.0104 0.0000 nan 100.00%
0 2 0.0000 25 93.0104 0.0000 146 100.00%
CPXPARAM_MIP_Cuts_Gomory-Disjunctive-LiftProj:Gomory 0
CPXPARAM_MIP_Cuts_Gomory-Disjunctive-LiftProj:Disjunctive 0
CPXPARAM_MIP_Cuts_Gomory-Disjunctive-LiftProj:LiftProj 1
9
Node Left Objective IInf Best_Integer Best_Bound ItCnt Gap
0+ 0 nan nan 131.6037 0.0000 nan 100.00%
0+ 0 nan nan 111.2422 0.0000 nan 100.00%
0 0 0.0000 27 111.2422 0.0000 125 100.00%
0+ 0 nan nan 88.6818 0.0000 nan 100.00%
0 0 0.0000 18 88.6818 Disjcuts:1 126 100.00%
0+ 0 nan nan 88.2535 0.0000 nan 100.00%
0 0 0.0000 19 88.2535 Cuts:25 169 100.00%
0 0 0.0000 20 88.2535 Cuts:19 213 100.00%
0+ 0 nan nan 84.2061 0.0000 nan 100.00%
0+ 0 nan nan 80.4257 0.0000 nan 100.00%
0+ 0 nan nan 72.0665 0.0000 nan 100.00%
0 2 0.0000 19 72.0665 0.0000 213 100.00%
CPXPARAM_MIP_Cuts_Gomory-Disjunctive-LiftProj:Gomory 0
CPXPARAM_MIP_Cuts_Gomory-Disjunctive-LiftProj:Disjunctive 0
CPXPARAM_MIP_Cuts_Gomory-Disjunctive-LiftProj:LiftProj 0
10
Node Left Objective IInf Best_Integer Best_Bound ItCnt Gap
0+ 0 nan nan 131.6037 0.0000 nan 100.00%
0+ 0 nan nan 99.6733 0.0000 nan 100.00%
0 0 0.0000 23 99.6733 0.0000 121 100.00%
0 0 0.0000 20 99.6733 Cuts:5 123 100.00%
0 0 0.0000 21 99.6733 Cuts:22 172 100.00%
0+ 0 nan nan 94.7735 0.0000 nan 100.00%
0 0 0.0000 21 94.7735 Cuts:11 192 100.00%
0+ 0 nan nan 93.7847 0.0000 nan 100.00%
0+ 0 nan nan 89.6733 0.0000 nan 100.00%
0+ 0 nan nan 80.0495 0.0000 nan 100.00%
0 2 0.0000 21 80.0495 0.0000 192 100.00%
CPXPARAM_MIP_Cuts_Gomory-Disjunctive-LiftProj:Gomory 0
CPXPARAM_MIP_Cuts_Gomory-Disjunctive-LiftProj:Disjunctive 1
CPXPARAM_MIP_Cuts_Gomory-Disjunctive-LiftProj:LiftProj 0
11
Node Left Objective IInf Best_Integer Best_Bound ItCnt Gap
0+ 0 nan nan 131.6037 0.0000 nan 100.00%
0+ 0 nan nan 99.6733 0.0000 nan 100.00%
0 0 0.0000 23 99.6733 0.0000 121 100.00%
0+ 0 nan nan 70.7338 0.0000 nan 100.00%
0 0 0.0000 15 70.7338 Disjcuts:1 128 100.00%
0 0 0.0000 16 70.7338 Cuts:11 154 100.00%
0 0 0.0000 15 70.7338 Cuts:3 160 100.00%
0+ 0 nan nan 54.2596 0.0000 nan 100.00%
0 2 0.0000 15 54.2596 0.0000 160 100.00%
CPXPARAM_MIP_Cuts_Gomory-Disjunctive-LiftProj:Gomory 0
CPXPARAM_MIP_Cuts_Gomory-Disjunctive-LiftProj:Disjunctive 0
CPXPARAM_MIP_Cuts_Gomory-Disjunctive-LiftProj:LiftProj 3
12
Node Left Objective IInf Best_Integer Best_Bound ItCnt Gap
0+ 0 nan nan 110.3567 0.0000 nan 100.00%
0+ 0 nan nan 96.6816 0.0000 nan 100.00%
0 0 0.0000 27 96.6816 0.0000 120 100.00%
0 0 0.0000 25 96.6816 LiftProj:1 126 100.00%
0 0 0.0000 26 96.6816 Cuts:24 152 100.00%
0 0 0.0000 26 96.6816 Cuts:34 199 100.00%
0+ 0 nan nan 93.2379 0.0000 nan 100.00%
0+ 0 nan nan 88.8297 0.0000 nan 100.00%
0 2 0.0000 25 88.8297 0.0000 199 100.00%
CPXPARAM_MIP_Cuts_Gomory-Disjunctive-LiftProj:Gomory 1
CPXPARAM_MIP_Cuts_Gomory-Disjunctive-LiftProj:Disjunctive 0
CPXPARAM_MIP_Cuts_Gomory-Disjunctive-LiftProj:LiftProj 0
13
Node Left Objective IInf Best_Integer Best_Bound ItCnt Gap
0+ 0 nan nan 110.3567 0.0000 nan 100.00%
0+ 0 nan nan 96.6816 0.0000 nan 100.00%
0 0 0.0000 27 96.6816 0.0000 121 100.00%
0+ 0 nan nan 67.8692 0.0000 nan 100.00%
0 0 0.0000 20 67.8692 Cuts:8 144 100.00%
0 0 0.0000 20 67.8692 Cuts:11 169 100.00%
0 0 0.0000 18 67.8692 LiftProj:2 173 100.00%
0+ 0 nan nan 67.8444 0.0000 nan 100.00%
0+ 0 nan nan 57.4750 0.0000 nan 100.00%
0 2 0.0000 18 57.4750 0.0000 173 100.00%
CPXPARAM_MIP_Cuts_Gomory-Disjunctive-LiftProj:Gomory 2
CPXPARAM_MIP_Cuts_Gomory-Disjunctive-LiftProj:Disjunctive 0
CPXPARAM_MIP_Cuts_Gomory-Disjunctive-LiftProj:LiftProj 0
14
Node Left Objective IInf Best_Integer Best_Bound ItCnt Gap
0+ 0 nan nan 110.3567 0.0000 nan 100.00%
0+ 0 nan nan 82.1268 0.0000 nan 100.00%
0 0 0.0000 23 82.1268 0.0000 121 100.00%
0 0 0.0000 23 82.1268 Cuts:12 142 100.00%
0 0 0.0000 23 82.1268 Cuts:22 163 100.00%
0+ 0 nan nan 71.6582 0.0000 nan 100.00%
0 2 0.0000 22 71.6582 0.0000 163 100.00%
CPXPARAM_MIP_Cuts_Gomory-Disjunctive-LiftProj:Gomory 1
CPXPARAM_MIP_Cuts_Gomory-Disjunctive-LiftProj:Disjunctive 1
CPXPARAM_MIP_Cuts_Gomory-Disjunctive-LiftProj:LiftProj 1
15
Node Left Objective IInf Best_Integer Best_Bound ItCnt Gap
0+ 0 nan nan 110.3567 0.0000 nan 100.00%
0+ 0 nan nan 82.1268 0.0000 nan 100.00%
0 0 0.0000 23 82.1268 0.0000 117 100.00%
0+ 0 nan nan 59.2187 0.0000 nan 100.00%
0+ 0 nan nan 48.2055 0.0000 nan 100.00%
0+ 0 nan nan 48.1018 0.0000 nan 100.00%
0+ 0 nan nan 42.1408 0.0000 nan 100.00%
0 2 0.0000 13 42.1408 0.0000 117 100.00%
CPXPARAM_MIP_Cuts_Gomory-Disjunctive-LiftProj:Gomory 0
CPXPARAM_MIP_Cuts_Gomory-Disjunctive-LiftProj:Disjunctive 0
CPXPARAM_MIP_Cuts_Gomory-Disjunctive-LiftProj:LiftProj 0
16
Node Left Objective IInf Best_Integer Best_Bound ItCnt Gap
0+ 0 nan nan 109.2984 0.0000 nan 100.00%
0+ 0 nan nan 97.6971 0.0000 nan 100.00%
0 0 0.0000 27 97.6971 0.0000 113 100.00%
0 0 0.0000 26 97.6971 Cuts:18 134 100.00%
0 0 0.0000 27 97.6971 Cuts:20 186 100.00%
0+ 0 nan nan 93.5731 0.0000 nan 100.00%
0+ 0 nan nan 83.0048 0.0000 nan 100.00%
0 2 0.0000 25 83.0048 0.0000 186 100.00%
CPXPARAM_MIP_Cuts_Gomory-Disjunctive-LiftProj:Gomory 0
CPXPARAM_MIP_Cuts_Gomory-Disjunctive-LiftProj:Disjunctive 0
CPXPARAM_MIP_Cuts_Gomory-Disjunctive-LiftProj:LiftProj 2
17
Node Left Objective IInf Best_Integer Best_Bound ItCnt Gap
0+ 0 nan nan 109.2984 0.0000 nan 100.00%
0+ 0 nan nan 97.6971 0.0000 nan 100.00%
0 0 0.0000 27 97.6971 0.0000 121 100.00%
0+ 0 nan nan 49.1084 0.0000 nan 100.00%
0 0 0.0000 18 49.1084 Disjcuts:1 123 100.00%
0 0 0.0000 19 49.1084 Cuts:19 151 100.00%
0+ 0 nan nan 39.2412 0.0000 nan 100.00%
0 2 0.0000 18 39.2412 0.0000 151 100.00%
CPXPARAM_MIP_Cuts_Gomory-Disjunctive-LiftProj:Gomory 0
CPXPARAM_MIP_Cuts_Gomory-Disjunctive-LiftProj:Disjunctive 0
CPXPARAM_MIP_Cuts_Gomory-Disjunctive-LiftProj:LiftProj 1
18
Node Left Objective IInf Best_Integer Best_Bound ItCnt Gap
0+ 0 nan nan 109.2984 0.0000 nan 100.00%
0+ 0 nan nan 86.6088 0.0000 nan 100.00%
0 0 0.0000 23 86.6088 0.0000 118 100.00%
0 0 0.0000 22 86.6088 Cuts:6 131 100.00%
0 0 0.0000 21 86.6088 Cuts:19 175 100.00%
0 0 0.0000 21 86.6088 Cuts:18 228 100.00%
0+ 0 nan nan 61.7414 0.0000 nan 100.00%
0 2 0.0000 21 61.7414 0.0000 228 100.00%
CPXPARAM_MIP_Cuts_Gomory-Disjunctive-LiftProj:Gomory 0
CPXPARAM_MIP_Cuts_Gomory-Disjunctive-LiftProj:Disjunctive 0
CPXPARAM_MIP_Cuts_Gomory-Disjunctive-LiftProj:LiftProj 2
19
Node Left Objective IInf Best_Integer Best_Bound ItCnt Gap
0+ 0 nan nan 109.2984 0.0000 nan 100.00%
0+ 0 nan nan 86.6088 0.0000 nan 100.00%
0 0 0.0000 24 86.6088 0.0000 117 100.00%
0+ 0 nan nan 44.8537 0.0000 nan 100.00%
0 0 0.0000 14 44.8537 Disjcuts:1 118 100.00%
0 0 0.0000 16 44.8537 Cuts:14 169 100.00%
0 0 0.0000 15 44.8537 Cuts:13 195 100.00%
0+ 0 nan nan 39.0786 0.0000 nan 100.00%
0 2 0.0000 15 39.0786 0.0000 195 100.00%
CPXPARAM_MIP_Cuts_Gomory-Disjunctive-LiftProj:Gomory 1
CPXPARAM_MIP_Cuts_Gomory-Disjunctive-LiftProj:Disjunctive 1
CPXPARAM_MIP_Cuts_Gomory-Disjunctive-LiftProj:LiftProj 3
20
Node Left Objective IInf Best_Integer Best_Bound ItCnt Gap
0+ 0 nan nan 93.3792 0.0000 nan 100.00%
0+ 0 nan nan 84.6822 0.0000 nan 100.00%
0 0 0.0000 27 84.6822 0.0000 131 100.00%
0+ 0 nan nan 70.9667 0.0000 nan 100.00%
0 0 0.0000 25 70.9667 Cuts:7 141 100.00%
0+ 0 nan nan 64.9018 0.0000 nan 100.00%
0 0 0.0000 26 64.9018 Cuts:26 176 100.00%
0 0 0.0000 25 64.9018 Cuts:13 189 100.00%
0+ 0 nan nan 52.8049 0.0000 nan 100.00%
0+ 0 nan nan 46.1984 0.0000 nan 100.00%
0 2 0.0000 25 46.1984 0.0000 189 100.00%
CPXPARAM_MIP_Cuts_Gomory-Disjunctive-LiftProj:Gomory 0
CPXPARAM_MIP_Cuts_Gomory-Disjunctive-LiftProj:Disjunctive 0
CPXPARAM_MIP_Cuts_Gomory-Disjunctive-LiftProj:LiftProj 7
21
Node Left Objective IInf Best_Integer Best_Bound ItCnt Gap
0+ 0 nan nan 93.3792 0.0000 nan 100.00%
0+ 0 nan nan 84.6822 0.0000 nan 100.00%
0 0 0.0000 27 84.6822 0.0000 125 100.00%
0+ 0 nan nan 46.5828 0.0000 nan 100.00%
0 0 0.0000 18 46.5828 Cuts:2 130 100.00%
0 0 0.0000 19 46.5828 Cuts:16 159 100.00%
0 0 0.0000 19 46.5828 Cuts:6 188 100.00%
0+ 0 nan nan 44.1612 0.0000 nan 100.00%
0+ 0 nan nan 33.2050 0.0000 nan 100.00%
0 2 0.0000 18 33.2050 0.0000 188 100.00%
CPXPARAM_MIP_Cuts_Gomory-Disjunctive-LiftProj:Gomory 0
CPXPARAM_MIP_Cuts_Gomory-Disjunctive-LiftProj:Disjunctive 1
CPXPARAM_MIP_Cuts_Gomory-Disjunctive-LiftProj:LiftProj 0
22
Node Left Objective IInf Best_Integer Best_Bound ItCnt Gap
0+ 0 nan nan 93.3792 0.0000 nan 100.00%
0+ 0 nan nan 77.4137 0.0000 nan 100.00%
0 0 0.0000 23 77.4137 0.0000 135 100.00%
0+ 0 nan nan 61.3589 0.0000 nan 100.00%
0 0 0.0000 21 61.3589 Disjcuts:4 155 100.00%
0+ 0 nan nan 59.3611 0.0000 nan 100.00%
0 0 0.0000 22 59.3611 Cuts:25 191 100.00%
0+ 0 nan nan 51.5425 0.0000 nan 100.00%
0+ 0 nan nan 42.4331 0.0000 nan 100.00%
0+ 0 nan nan 30.8773 0.0000 nan 100.00%
0 2 0.0000 21 30.8773 0.0000 191 100.00%
CPXPARAM_MIP_Cuts_Gomory-Disjunctive-LiftProj:Gomory 0
CPXPARAM_MIP_Cuts_Gomory-Disjunctive-LiftProj:Disjunctive 0
CPXPARAM_MIP_Cuts_Gomory-Disjunctive-LiftProj:LiftProj 0
23
Node Left Objective IInf Best_Integer Best_Bound ItCnt Gap
0+ 0 nan nan 93.3792 0.0000 nan 100.00%
0+ 0 nan nan 77.4137 0.0000 nan 100.00%
0 0 0.0000 23 77.4137 0.0000 115 100.00%
0+ 0 nan nan 44.4047 0.0000 nan 100.00%
0 0 0.0000 14 44.4047 LiftProj:2 120 100.00%
0+ 0 nan nan 41.2468 0.0000 nan 100.00%
0 0 0.0000 14 41.2468 Cuts:22 143 100.00%
0+ 0 nan nan 31.9453 0.0000 nan 100.00%
0 0 0.0000 15 31.9453 Cuts:7 171 100.00%
0+ 0 nan nan 31.3660 0.0000 nan 100.00%
0 2 0.0000 13 31.3660 0.0000 171 100.00%
CPXPARAM_MIP_Cuts_Gomory-Disjunctive-LiftProj:Gomory 1
CPXPARAM_MIP_Cuts_Gomory-Disjunctive-LiftProj:Disjunctive 1
CPXPARAM_MIP_Cuts_Gomory-Disjunctive-LiftProj:LiftProj 0
24
Node Left Objective IInf Best_Integer Best_Bound ItCnt Gap
0+ 0 nan nan 94.5045 0.0000 nan 100.00%
0+ 0 nan nan 83.7373 0.0000 nan 100.00%
0 0 0.0000 27 83.7373 0.0000 126 100.00%
0+ 0 nan nan 75.2022 0.0000 nan 100.00%
0 0 0.0000 27 75.2022 Cuts:10 144 100.00%
0+ 0 nan nan 74.2312 0.0000 nan 100.00%
0 0 0.0000 25 74.2312 Disjcuts:4 163 100.00%
0+ 0 nan nan 67.4412 0.0000 nan 100.00%
0 0 0.0000 29 67.4412 Cuts:26 224 100.00%
0+ 0 nan nan 63.2261 0.0000 nan 100.00%
0+ 0 nan nan 55.9039 0.0000 nan 100.00%
0+ 0 nan nan 51.8708 0.0000 nan 100.00%
0 2 0.0000 25 51.8708 0.0000 224 100.00%
CPXPARAM_MIP_Cuts_Gomory-Disjunctive-LiftProj:Gomory 0
CPXPARAM_MIP_Cuts_Gomory-Disjunctive-LiftProj:Disjunctive 0
CPXPARAM_MIP_Cuts_Gomory-Disjunctive-LiftProj:LiftProj 1
25
Node Left Objective IInf Best_Integer Best_Bound ItCnt Gap
0+ 0 nan nan 94.5045 0.0000 nan 100.00%
0+ 0 nan nan 83.7373 0.0000 nan 100.00%
0 0 0.0000 27 83.7373 0.0000 119 100.00%
0+ 0 nan nan 62.9306 0.0000 nan 100.00%
0 0 0.0000 19 62.9306 Cuts:12 134 100.00%
0 0 0.0000 19 62.9306 Cuts:23 182 100.00%
0+ 0 nan nan 61.2395 0.0000 nan 100.00%
0 0 0.0000 18 61.2395 Cuts:4 185 100.00%
0+ 0 nan nan 60.3492 0.0000 nan 100.00%
0+ 0 nan nan 59.0629 0.0000 nan 100.00%
0 2 0.0000 18 59.0629 0.0000 185 100.00%
CPXPARAM_MIP_Cuts_Gomory-Disjunctive-LiftProj:Gomory 0
CPXPARAM_MIP_Cuts_Gomory-Disjunctive-LiftProj:Disjunctive 1
CPXPARAM_MIP_Cuts_Gomory-Disjunctive-LiftProj:LiftProj 0
26
Node Left Objective IInf Best_Integer Best_Bound ItCnt Gap
0+ 0 nan nan 94.5045 0.0000 nan 100.00%
0+ 0 nan nan 77.4984 0.0000 nan 100.00%
0 0 0.0000 23 77.4984 0.0000 120 100.00%
0+ 0 nan nan 68.8610 0.0000 nan 100.00%
0 0 0.0000 22 68.8610 Cuts:8 136 100.00%
0 0 0.0000 21 68.8610 LiftProj:4 148 100.00%
0+ 0 nan nan 68.6505 0.0000 nan 100.00%
0+ 0 nan nan 55.3736 0.0000 nan 100.00%
0+ 0 nan nan 48.1661 0.0000 nan 100.00%
0 2 0.0000 21 48.1661 0.0000 148 100.00%
CPXPARAM_MIP_Cuts_Gomory-Disjunctive-LiftProj:Gomory 2
CPXPARAM_MIP_Cuts_Gomory-Disjunctive-LiftProj:Disjunctive 0
CPXPARAM_MIP_Cuts_Gomory-Disjunctive-LiftProj:LiftProj 0
27
Node Left Objective IInf Best_Integer Best_Bound ItCnt Gap
0+ 0 nan nan 94.5045 0.0000 nan 100.00%
0+ 0 nan nan 77.4984 0.0000 nan 100.00%
0 0 0.0000 23 77.4984 0.0000 116 100.00%
0+ 0 nan nan 42.7585 0.0000 nan 100.00%
0+ 0 nan nan 32.3132 0.0000 nan 100.00%
0 2 0.0000 13 32.3132 0.0000 116 100.00%
CPXPARAM_MIP_Cuts_Gomory-Disjunctive-LiftProj:Gomory 0
CPXPARAM_MIP_Cuts_Gomory-Disjunctive-LiftProj:Disjunctive 0
CPXPARAM_MIP_Cuts_Gomory-Disjunctive-LiftProj:LiftProj 0
28
Node Left Objective IInf Best_Integer Best_Bound ItCnt Gap
0+ 0 nan nan 133.7092 0.0000 nan 100.00%
0+ 0 nan nan 129.6212 0.0000 nan 100.00%
0+ 0 nan nan 108.6480 0.0000 nan 100.00%
0 0 0.0000 27 108.6480 0.0000 133 100.00%
0 0 0.0000 26 108.6480 Cuts:10 151 100.00%
0 0 0.0000 28 108.6480 Cuts:27 190 100.00%
0 0 0.0000 26 108.6480 Cuts:3 194 100.00%
0+ 0 nan nan 108.3173 0.0000 nan 100.00%
0+ 0 nan nan 92.2431 0.0000 nan 100.00%
0+ 0 nan nan 90.5207 0.0000 nan 100.00%
0 2 0.0000 26 90.5207 0.0000 194 100.00%
CPXPARAM_MIP_Cuts_Gomory-Disjunctive-LiftProj:Gomory 1
CPXPARAM_MIP_Cuts_Gomory-Disjunctive-LiftProj:Disjunctive 0
CPXPARAM_MIP_Cuts_Gomory-Disjunctive-LiftProj:LiftProj 3
29
Node Left Objective IInf Best_Integer Best_Bound ItCnt Gap
0+ 0 nan nan 133.7092 0.0000 nan 100.00%
0+ 0 nan nan 129.6212 0.0000 nan 100.00%
0 0 0.0000 28 129.6212 0.0000 125 100.00%
0+ 0 nan nan 64.4748 0.0000 nan 100.00%
0+ 0 nan nan 63.1629 0.0000 nan 100.00%
0+ 0 nan nan 61.6458 0.0000 nan 100.00%
0 2 0.0000 19 61.6458 0.0000 125 100.00%
CPXPARAM_MIP_Cuts_Gomory-Disjunctive-LiftProj:Gomory 0
CPXPARAM_MIP_Cuts_Gomory-Disjunctive-LiftProj:Disjunctive 0
CPXPARAM_MIP_Cuts_Gomory-Disjunctive-LiftProj:LiftProj 0
30
Node Left Objective IInf Best_Integer Best_Bound ItCnt Gap
0+ 0 nan nan 133.7092 0.0000 nan 100.00%
0+ 0 nan nan 114.7297 0.0000 nan 100.00%
0 0 0.0000 23 114.7297 0.0000 115 100.00%
0+ 0 nan nan 105.7685 0.0000 nan 100.00%
0 0 0.0000 23 105.7685 Cuts:12 132 100.00%
0 0 0.0000 27 105.7685 Cuts:32 189 100.00%
0+ 0 nan nan 95.4124 0.0000 nan 100.00%
0+ 0 nan nan 88.2523 0.0000 nan 100.00%
0 2 0.0000 23 88.2523 0.0000 189 100.00%
CPXPARAM_MIP_Cuts_Gomory-Disjunctive-LiftProj:Gomory 0
CPXPARAM_MIP_Cuts_Gomory-Disjunctive-LiftProj:Disjunctive 0
CPXPARAM_MIP_Cuts_Gomory-Disjunctive-LiftProj:LiftProj 3
31
Node Left Objective IInf Best_Integer Best_Bound ItCnt Gap
0+ 0 nan nan 133.7092 0.0000 nan 100.00%
0+ 0 nan nan 114.7297 0.0000 nan 100.00%
0 0 0.0000 23 114.7297 0.0000 128 100.00%
0+ 0 nan nan 68.5774 0.0000 nan 100.00%
0 0 0.0000 14 68.5774 Disjcuts:1 133 100.00%
0+ 0 nan nan 64.2060 0.0000 nan 100.00%
0 0 0.0000 15 64.2060 Cuts:17 166 100.00%
0+ 0 nan nan 62.6957 0.0000 nan 100.00%
0 0 0.0000 15 62.6957 Cuts:20 198 100.00%
0+ 0 nan nan 62.0998 0.0000 nan 100.00%
0+ 0 nan nan 54.2076 0.0000 nan 100.00%
0+ 0 nan nan 52.6673 0.0000 nan 100.00%
0 2 0.0000 15 52.6673 0.0000 198 100.00%
CPXPARAM_MIP_Cuts_Gomory-Disjunctive-LiftProj:Gomory 1
CPXPARAM_MIP_Cuts_Gomory-Disjunctive-LiftProj:Disjunctive 1
CPXPARAM_MIP_Cuts_Gomory-Disjunctive-LiftProj:LiftProj 1
32
Node Left Objective IInf Best_Integer Best_Bound ItCnt Gap
0+ 0 nan nan 110.7059 0.0000 nan 100.00%
0+ 0 nan nan 93.8685 0.0000 nan 100.00%
0+ 0 nan nan 88.1652 0.0000 nan 100.00%
0 0 0.0000 27 88.1652 0.0000 119 100.00%
0 0 0.0000 28 88.1652 Cuts:16 138 100.00%
0 0 0.0000 26 88.1652 Cuts:11 147 100.00%
0+ 0 nan nan 87.7416 0.0000 nan 100.00%
0 0 0.0000 28 87.7416 Cuts:21 202 100.00%
0+ 0 nan nan 63.5487 0.0000 nan 100.00%
0+ 0 nan nan 53.5039 0.0000 nan 100.00%
0 2 0.0000 26 53.5039 0.0000 202 100.00%
CPXPARAM_MIP_Cuts_Gomory-Disjunctive-LiftProj:Gomory 1
CPXPARAM_MIP_Cuts_Gomory-Disjunctive-LiftProj:Disjunctive 0
CPXPARAM_MIP_Cuts_Gomory-Disjunctive-LiftProj:LiftProj 1
33
Node Left Objective IInf Best_Integer Best_Bound ItCnt Gap
0+ 0 nan nan 110.7059 0.0000 nan 100.00%
0+ 0 nan nan 93.8685 0.0000 nan 100.00%
0 0 0.0000 27 93.8685 0.0000 116 100.00%
0+ 0 nan nan 60.5684 0.0000 nan 100.00%
0 0 0.0000 20 60.5684 Disjcuts:2 140 100.00%
0 0 0.0000 21 60.5684 Cuts:12 164 100.00%
0+ 0 nan nan 59.9215 0.0000 nan 100.00%
0 0 0.0000 20 59.9215 Cuts:2 178 100.00%
0+ 0 nan nan 57.2180 0.0000 nan 100.00%
0+ 0 nan nan 48.6739 0.0000 nan 100.00%
0 2 0.0000 18 48.6739 0.0000 178 100.00%
CPXPARAM_MIP_Cuts_Gomory-Disjunctive-LiftProj:Gomory 0
CPXPARAM_MIP_Cuts_Gomory-Disjunctive-LiftProj:Disjunctive 0
CPXPARAM_MIP_Cuts_Gomory-Disjunctive-LiftProj:LiftProj 0
34
Node Left Objective IInf Best_Integer Best_Bound ItCnt Gap
0+ 0 nan nan 110.7059 0.0000 nan 100.00%
0+ 0 nan nan 74.9711 0.0000 nan 100.00%
0 0 0.0000 23 74.9711 0.0000 120 100.00%
0+ 0 nan nan 70.5384 0.0000 nan 100.00%
0 0 0.0000 21 70.5384 Cuts:4 133 100.00%
0+ 0 nan nan 70.5321 0.0000 nan 100.00%
0 0 0.0000 23 70.5321 Cuts:25 162 100.00%
0+ 0 nan nan 68.4582 0.0000 nan 100.00%
0+ 0 nan nan 67.5810 0.0000 nan 100.00%
0+ 0 nan nan 60.9814 0.0000 nan 100.00%
0 2 0.0000 21 60.9814 0.0000 162 100.00%
CPXPARAM_MIP_Cuts_Gomory-Disjunctive-LiftProj:Gomory 0
CPXPARAM_MIP_Cuts_Gomory-Disjunctive-LiftProj:Disjunctive 1
CPXPARAM_MIP_Cuts_Gomory-Disjunctive-LiftProj:LiftProj 0
35
Node Left Objective IInf Best_Integer Best_Bound ItCnt Gap
0+ 0 nan nan 110.7059 0.0000 nan 100.00%
0+ 0 nan nan 74.9711 0.0000 nan 100.00%
0 0 0.0000 23 74.9711 0.0000 113 100.00%
0+ 0 nan nan 53.1990 0.0000 nan 100.00%
0+ 0 nan nan 49.8685 0.0000 nan 100.00%
0 2 0.0000 15 49.8685 0.0000 113 100.00%
CPXPARAM_MIP_Cuts_Gomory-Disjunctive-LiftProj:Gomory 0
CPXPARAM_MIP_Cuts_Gomory-Disjunctive-LiftProj:Disjunctive 0
CPXPARAM_MIP_Cuts_Gomory-Disjunctive-LiftProj:LiftProj 0
36
Node Left Objective IInf Best_Integer Best_Bound ItCnt Gap
0+ 0 nan nan 123.7135 0.0000 nan 100.00%
0+ 0 nan nan 108.6148 0.0000 nan 100.00%
0+ 0 nan nan 99.0366 0.0000 nan 100.00%
0 0 0.0000 27 99.0366 0.0000 131 100.00%
0+ 0 nan nan 98.7082 0.0000 nan 100.00%
0 0 0.0000 25 98.7082 Cuts:8 145 100.00%
0+ 0 nan nan 97.3821 0.0000 nan 100.00%
0 0 0.0000 26 97.3821 Cuts:20 199 100.00%
0+ 0 nan nan 88.7821 0.0000 nan 100.00%
0 0 0.0000 28 88.7821 Cuts:31 264 100.00%
0+ 0 nan nan 80.2587 0.0000 nan 100.00%
0+ 0 nan nan 78.2207 0.0000 nan 100.00%
0 2 0.0000 25 78.2207 0.0000 264 100.00%
CPXPARAM_MIP_Cuts_Gomory-Disjunctive-LiftProj:Gomory 0
CPXPARAM_MIP_Cuts_Gomory-Disjunctive-LiftProj:Disjunctive 0
CPXPARAM_MIP_Cuts_Gomory-Disjunctive-LiftProj:LiftProj 1
37
Node Left Objective IInf Best_Integer Best_Bound ItCnt Gap
0+ 0 nan nan 123.7135 0.0000 nan 100.00%
0+ 0 nan nan 108.6148 0.0000 nan 100.00%
0 0 0.0000 27 108.6148 0.0000 128 100.00%
0+ 0 nan nan 83.1888 0.0000 nan 100.00%
0+ 0 nan nan 80.2505 0.0000 nan 100.00%
0+ 0 nan nan 58.5686 0.0000 nan 100.00%
0 2 0.0000 18 58.5686 0.0000 128 100.00%
CPXPARAM_MIP_Cuts_Gomory-Disjunctive-LiftProj:Gomory 0
CPXPARAM_MIP_Cuts_Gomory-Disjunctive-LiftProj:Disjunctive 0
CPXPARAM_MIP_Cuts_Gomory-Disjunctive-LiftProj:LiftProj 0
38
Node Left Objective IInf Best_Integer Best_Bound ItCnt Gap
0+ 0 nan nan 123.7135 0.0000 nan 100.00%
0+ 0 nan nan 89.1896 0.0000 nan 100.00%
0 0 0.0000 23 89.1896 0.0000 134 100.00%
0+ 0 nan nan 83.5087 0.0000 nan 100.00%
0 0 0.0000 23 83.5087 Cuts:18 156 100.00%
0+ 0 nan nan 72.0116 0.0000 nan 100.00%
0 0 0.0000 24 72.0116 Cuts:9 173 100.00%
0+ 0 nan nan 55.9915 0.0000 nan 100.00%
0+ 0 nan nan 55.9667 0.0000 nan 100.00%
0 2 0.0000 23 55.9667 0.0000 173 100.00%
CPXPARAM_MIP_Cuts_Gomory-Disjunctive-LiftProj:Gomory 0
CPXPARAM_MIP_Cuts_Gomory-Disjunctive-LiftProj:Disjunctive 0
CPXPARAM_MIP_Cuts_Gomory-Disjunctive-LiftProj:LiftProj 5
39
Node Left Objective IInf Best_Integer Best_Bound ItCnt Gap
0+ 0 nan nan 123.7135 0.0000 nan 100.00%
0+ 0 nan nan 89.1896 0.0000 nan 100.00%
0 0 0.0000 24 89.1896 0.0000 114 100.00%
0+ 0 nan nan 58.9767 0.0000 nan 100.00%
0+ 0 nan nan 54.7604 0.0000 nan 100.00%
0+ 0 nan nan 52.9230 0.0000 nan 100.00%
0+ 0 nan nan 35.3690 0.0000 nan 100.00%
0 2 0.0000 14 35.3690 0.0000 114 100.00%
CPXPARAM_MIP_Cuts_Gomory-Disjunctive-LiftProj:Gomory 0
CPXPARAM_MIP_Cuts_Gomory-Disjunctive-LiftProj:Disjunctive 0
CPXPARAM_MIP_Cuts_Gomory-Disjunctive-LiftProj:LiftProj 0
